100
32
20
14
3
2
25
10
12
12
17
1
1
5
3
3
1
2
1
19
2
1
1
1
1
1
17
1
1
1
1
19
4
1
1
18
1
1
17
19
1
1
1
3
1
1
4
1
3
2
3
3
2
2
3
3
17
4
2
1
1
19
2
1
17
5
2
1
3
5
3
1
1
1
3
2
1
4
4
17
2
7
1
2
1
17
3
1
1
2
2
2
1
1
1
2
2
2
2
2
1
1